(set-info :smt-lib-version 2.6)
(set-logic LRA)
(set-info :source |
   Scholl, Christoph; Disch, Stefan; Pigorsch, Florian and Kupferschmid, 
   Stefan; Using an SMT Solver and Craig Interpolation to Detect and Remove 
   Redundant Linear Constraints in Representations of Non-Convex Polyhedra.
   Proceedings of 6th International Workshop on Satisfiability Modulo
   Theories, Princeton, USA, July 2008.
   <http://abs.informatik.uni-freiburg.de/smtbench/>
|)
(set-info :category "random")
(set-info :status unsat)
(declare-fun x1 () Real)
(declare-fun x2 () Real)
(declare-fun x3 () Real)
(assert (exists ((?x1 Real)) (forall ((?x2 Real)) (exists ((?x3 Real)) (and (< (+ (+ (* (- 68) ?x1) (* 9 ?x2)) (* (- 33) ?x3)) (- 92)) (< (+ (+ (* 74 ?x1) (* (- 99) ?x2)) (* 19 ?x3)) (- 8)))))))
(check-sat)
(exit)
